\Gamma -> X -> M
140
Reciprocal
0.0 0.0 0.0 1 
0.16666666666666 -0.0 0.0 4 
0.33333333333334 0.0 0.0 4 
0.5 0.0 0.0 2 
0.16666666666666 0.16666666666666 0.0 4 
0.33333333333334 0.16666666666666 0.0 8 
0.5 0.16666666666666 0.0 4 
0.33333333333334 0.33333333333334 0.0 4 
0.5 0.33333333333334 0.0 4 
0.5 0.5 0.0 1 
-0.0 -0.0 0.11111111111111 2 
0.16666666666666 -0.0 0.11111111111111 8 
0.33333333333334 0.0 0.11111111111111 8 
0.5 0.0 0.11111111111111 4 
0.16666666666666 0.16666666666666 0.11111111111111 8 
0.33333333333334 0.16666666666666 0.11111111111111 16 
0.5 0.16666666666666 0.11111111111111 8 
0.33333333333334 0.33333333333334 0.11111111111111 8 
0.5 0.33333333333334 0.11111111111111 8 
0.5 0.5 0.11111111111111 2 
0.0 0.0 0.22222222222222 2 
0.16666666666666 -0.0 0.22222222222222 8 
0.33333333333334 0.0 0.22222222222222 8 
0.5 0.0 0.22222222222222 4 
0.16666666666666 0.16666666666666 0.22222222222222 8 
0.33333333333334 0.16666666666666 0.22222222222222 16 
0.5 0.16666666666666 0.22222222222222 8 
0.33333333333334 0.33333333333334 0.22222222222222 8 
0.5 0.33333333333334 0.22222222222222 8 
0.5 0.5 0.22222222222222 2 
-0.0 -0.0 0.33333333333334 2 
0.16666666666666 -0.0 0.33333333333334 8 
0.33333333333334 -0.0 0.33333333333334 8 
0.5 -0.0 0.33333333333334 4 
0.16666666666666 0.16666666666666 0.33333333333334 8 
0.33333333333334 0.16666666666666 0.33333333333334 16 
0.5 0.16666666666666 0.33333333333334 8 
0.33333333333334 0.33333333333334 0.33333333333334 8 
0.5 0.33333333333334 0.33333333333334 8 
0.5 0.5 0.33333333333334 2 
0.0 0.0 0.44444444444444 2 
0.16666666666666 0.0 0.44444444444444 8 
0.33333333333334 0.0 0.44444444444444 8 
0.5 0.0 0.44444444444444 4 
0.16666666666666 0.16666666666666 0.44444444444444 8 
0.33333333333334 0.16666666666666 0.44444444444444 16 
0.5 0.16666666666666 0.44444444444444 8 
0.33333333333334 0.33333333333334 0.44444444444444 8 
0.5 0.33333333333334 0.44444444444444 8 
0.5 0.5 0.44444444444444 2 
0.0 0.0 0.0 0 \Gamma
0.0 0.012195121951219514 0.0 0 
0.0 0.02439024390243903 0.0 0 
0.0 0.036585365853658534 0.0 0 
0.0 0.04878048780487806 0.0 0 
0.0 0.06097560975609756 0.0 0 
0.0 0.07317073170731707 0.0 0 
0.0 0.08536585365853659 0.0 0 
0.0 0.09756097560975611 0.0 0 
0.0 0.10975609756097561 0.0 0 
0.0 0.12195121951219512 0.0 0 
0.0 0.13414634146341464 0.0 0 
0.0 0.14634146341463414 0.0 0 
0.0 0.15853658536585366 0.0 0 
0.0 0.17073170731707318 0.0 0 
0.0 0.18292682926829268 0.0 0 
0.0 0.19512195121951223 0.0 0 
0.0 0.2073170731707317 0.0 0 
0.0 0.21951219512195122 0.0 0 
0.0 0.23170731707317074 0.0 0 
0.0 0.24390243902439024 0.0 0 
0.0 0.2560975609756098 0.0 0 
0.0 0.2682926829268293 0.0 0 
0.0 0.2804878048780488 0.0 0 
0.0 0.2926829268292683 0.0 0 
0.0 0.3048780487804878 0.0 0 
0.0 0.3170731707317073 0.0 0 
0.0 0.32926829268292684 0.0 0 
0.0 0.34146341463414637 0.0 0 
0.0 0.35365853658536583 0.0 0 
0.0 0.36585365853658536 0.0 0 
0.0 0.3780487804878049 0.0 0 
0.0 0.39024390243902446 0.0 0 
0.0 0.4024390243902439 0.0 0 
0.0 0.4146341463414634 0.0 0 
0.0 0.426829268292683 0.0 0 
0.0 0.43902439024390244 0.0 0 
0.0 0.451219512195122 0.0 0 
0.0 0.4634146341463415 0.0 0 
0.0 0.47560975609756095 0.0 0 
0.0 0.4878048780487805 0.0 0 
0.0 0.5 0.0 0 X
0.012195121951219514 0.5 0.0 0 
0.02439024390243903 0.5 0.0 0 
0.036585365853658534 0.5 0.0 0 
0.04878048780487806 0.5 0.0 0 
0.06097560975609756 0.5 0.0 0 
0.07317073170731707 0.5 0.0 0 
0.08536585365853659 0.5 0.0 0 
0.09756097560975611 0.5 0.0 0 
0.10975609756097561 0.5 0.0 0 
0.12195121951219512 0.5 0.0 0 
0.13414634146341464 0.5 0.0 0 
0.14634146341463414 0.5 0.0 0 
0.15853658536585366 0.5 0.0 0 
0.17073170731707318 0.5 0.0 0 
0.18292682926829268 0.5 0.0 0 
0.19512195121951223 0.5 0.0 0 
0.2073170731707317 0.5 0.0 0 
0.21951219512195122 0.5 0.0 0 
0.23170731707317074 0.5 0.0 0 
0.24390243902439024 0.5 0.0 0 
0.2560975609756098 0.5 0.0 0 
0.2682926829268293 0.5 0.0 0 
0.2804878048780488 0.5 0.0 0 
0.2926829268292683 0.5 0.0 0 
0.3048780487804878 0.5 0.0 0 
0.3170731707317073 0.5 0.0 0 
0.32926829268292684 0.5 0.0 0 
0.34146341463414637 0.5 0.0 0 
0.35365853658536583 0.5 0.0 0 
0.36585365853658536 0.5 0.0 0 
0.3780487804878049 0.5 0.0 0 
0.39024390243902446 0.5 0.0 0 
0.4024390243902439 0.5 0.0 0 
0.4146341463414634 0.5 0.0 0 
0.426829268292683 0.5 0.0 0 
0.43902439024390244 0.5 0.0 0 
0.451219512195122 0.5 0.0 0 
0.4634146341463415 0.5 0.0 0 
0.47560975609756095 0.5 0.0 0 
0.4878048780487805 0.5 0.0 0 
0.5 0.5 0.0 0 M
0.49137931034482757 0.49137931034482757 0.0 0 
0.48275862068965525 0.4827586206896552 0.0 0 
0.47413793103448276 0.47413793103448276 0.0 0 
0.46551724137931033 0.46551724137931033 0.0 0 
0.4568965517241379 0.4568965517241379 0.0 0 
0.4482758620689656 0.4482758620689655 0.0 0 
0.43965517241379315 0.4396551724137931 0.0 0 
