\Gamma
140
Reciprocal
0.0 0.0 0.0 1 
0.16666666666666 -0.0 0.0 4 
0.33333333333334 0.0 0.0 4 
0.5 0.0 0.0 2 
0.16666666666666 0.16666666666666 0.0 4 
0.33333333333334 0.16666666666666 0.0 8 
0.5 0.16666666666666 0.0 4 
0.33333333333334 0.33333333333334 0.0 4 
0.5 0.33333333333334 0.0 4 
0.5 0.5 0.0 1 
-0.0 -0.0 0.11111111111111 2 
0.16666666666666 -0.0 0.11111111111111 8 
0.33333333333334 0.0 0.11111111111111 8 
0.5 0.0 0.11111111111111 4 
0.16666666666666 0.16666666666666 0.11111111111111 8 
0.33333333333334 0.16666666666666 0.11111111111111 16 
0.5 0.16666666666666 0.11111111111111 8 
0.33333333333334 0.33333333333334 0.11111111111111 8 
0.5 0.33333333333334 0.11111111111111 8 
0.5 0.5 0.11111111111111 2 
0.0 0.0 0.22222222222222 2 
0.16666666666666 -0.0 0.22222222222222 8 
0.33333333333334 0.0 0.22222222222222 8 
0.5 0.0 0.22222222222222 4 
0.16666666666666 0.16666666666666 0.22222222222222 8 
0.33333333333334 0.16666666666666 0.22222222222222 16 
0.5 0.16666666666666 0.22222222222222 8 
0.33333333333334 0.33333333333334 0.22222222222222 8 
0.5 0.33333333333334 0.22222222222222 8 
0.5 0.5 0.22222222222222 2 
-0.0 -0.0 0.33333333333334 2 
0.16666666666666 -0.0 0.33333333333334 8 
0.33333333333334 -0.0 0.33333333333334 8 
0.5 -0.0 0.33333333333334 4 
0.16666666666666 0.16666666666666 0.33333333333334 8 
0.33333333333334 0.16666666666666 0.33333333333334 16 
0.5 0.16666666666666 0.33333333333334 8 
0.33333333333334 0.33333333333334 0.33333333333334 8 
0.5 0.33333333333334 0.33333333333334 8 
0.5 0.5 0.33333333333334 2 
0.0 0.0 0.44444444444444 2 
0.16666666666666 0.0 0.44444444444444 8 
0.33333333333334 0.0 0.44444444444444 8 
0.5 0.0 0.44444444444444 4 
0.16666666666666 0.16666666666666 0.44444444444444 8 
0.33333333333334 0.16666666666666 0.44444444444444 16 
0.5 0.16666666666666 0.44444444444444 8 
0.33333333333334 0.33333333333334 0.44444444444444 8 
0.5 0.33333333333334 0.44444444444444 8 
0.5 0.5 0.44444444444444 2 
0.43103448275862066 0.43103448275862066 0.0 0 
0.42241379310344823 0.4224137931034483 0.0 0 
0.4137931034482759 0.41379310344827586 0.0 0 
0.4051724137931035 0.4051724137931034 0.0 0 
0.39655172413793105 0.396551724137931 0.0 0 
0.3879310344827587 0.3879310344827586 0.0 0 
0.37931034482758624 0.3793103448275862 0.0 0 
0.3706896551724138 0.37068965517241376 0.0 0 
0.3620689655172414 0.36206896551724144 0.0 0 
0.353448275862069 0.35344827586206895 0.0 0 
0.3448275862068966 0.3448275862068965 0.0 0 
0.33620689655172414 0.3362068965517242 0.0 0 
0.3275862068965517 0.32758620689655177 0.0 0 
0.31896551724137934 0.31896551724137934 0.0 0 
0.3103448275862069 0.3103448275862069 0.0 0 
0.30172413793103453 0.3017241379310345 0.0 0 
0.29310344827586204 0.2931034482758621 0.0 0 
0.28448275862068967 0.28448275862068967 0.0 0 
0.27586206896551724 0.27586206896551724 0.0 0 
0.26724137931034486 0.26724137931034486 0.0 0 
0.25862068965517243 0.25862068965517243 0.0 0 
0.25 0.25 0.0 0 
0.24137931034482757 0.24137931034482757 0.0 0 
0.23275862068965522 0.2327586206896552 0.0 0 
0.2241379310344828 0.22413793103448276 0.0 0 
0.21551724137931033 0.21551724137931033 0.0 0 
0.20689655172413796 0.20689655172413798 0.0 0 
0.19827586206896552 0.19827586206896555 0.0 0 
0.18965517241379312 0.1896551724137931 0.0 0 
0.1810344827586207 0.18103448275862066 0.0 0 
0.1724137931034483 0.17241379310344832 0.0 0 
0.16379310344827586 0.16379310344827588 0.0 0 
0.15517241379310345 0.15517241379310343 0.0 0 
0.14655172413793105 0.14655172413793105 0.0 0 
0.13793103448275862 0.13793103448275865 0.0 0 
0.12931034482758622 0.12931034482758616 0.0 0 
0.12068965517241378 0.1206896551724138 0.0 0 
0.11206896551724135 0.11206896551724137 0.0 0 
0.10344827586206899 0.10344827586206892 0.0 0 
0.09482758620689656 0.09482758620689657 0.0 0 
0.08620689655172412 0.08620689655172413 0.0 0 
0.07758620689655168 0.0775862068965517 0.0 0 
0.06896551724137932 0.06896551724137934 0.0 0 
0.06034482758620689 0.0603448275862069 0.0 0 
0.051724137931034454 0.05172413793103446 0.0 0 
0.04310344827586202 0.04310344827586203 0.0 0 
0.03448275862068966 0.03448275862068967 0.0 0 
0.025862068965517227 0.02586206896551723 0.0 0 
0.017241379310344793 0.017241379310344796 0.0 0 
0.008620689655172436 0.008620689655172438 0.0 0 
0.0 0.0 0.0 0 \Gamma
-9.62964972193618e-35 0.0 0.007692307692307692 0 
-1.925929944387236e-34 0.0 0.015384615384615384 0 
0.0 0.0 0.023076923076923078 0 
-3.851859888774472e-34 0.0 0.030769230769230767 0 
0.0 -7.703719777548943e-34 0.038461538461538464 0 
0.0 0.0 0.046153846153846156 0 
0.0 0.0 0.05384615384615384 0 
-7.703719777548943e-34 0.0 0.061538461538461535 0 
0.0 -1.5407439555097887e-33 0.06923076923076923 0 
0.0 -1.5407439555097887e-33 0.07692307692307693 0 
0.0 -1.5407439555097887e-33 0.0846153846153846 0 
0.0 0.0 0.09230769230769231 0 
0.0 0.0 0.1 0 
0.0 0.0 0.10769230769230768 0 
-1.5407439555097887e-33 0.0 0.11538461538461539 0 
-1.5407439555097887e-33 0.0 0.12307692307692307 0 
1.5407439555097887e-33 1.5407439555097887e-33 0.13076923076923078 0 
0.0 -3.0814879110195774e-33 0.13846153846153847 0 
0.0 -3.0814879110195774e-33 0.14615384615384616 0 
0.0 -3.0814879110195774e-33 0.15384615384615385 0 
0.0 -3.0814879110195774e-33 0.16153846153846155 0 
0.0 -3.0814879110195774e-33 0.1692307692307692 0 
0.0 0.0 0.17692307692307693 0 
0.0 0.0 0.18461538461538463 0 
0.0 -3.0814879110195774e-33 0.19230769230769232 0 
0.0 0.0 0.2 0 
-3.0814879110195774e-33 0.0 0.2076923076923077 0 
0.0 0.0 0.21538461538461537 0 
-3.0814879110195774e-33 -3.0814879110195774e-33 0.22307692307692306 0 
-3.0814879110195774e-33 0.0 0.23076923076923078 0 
0.0 0.0 0.23846153846153847 0 
-3.0814879110195774e-33 0.0 0.24615384615384614 0 
3.0814879110195774e-33 3.0814879110195774e-33 0.25384615384615383 0 
3.0814879110195774e-33 3.0814879110195774e-33 0.26153846153846155 0 
3.0814879110195774e-33 3.0814879110195774e-33 0.2692307692307692 0 
0.0 -6.162975822039155e-33 0.27692307692307694 0 
0.0 -6.162975822039155e-33 0.2846153846153846 0 
0.0 -6.162975822039155e-33 0.2923076923076923 0 
-6.162975822039155e-33 -6.162975822039155e-33 0.3 0 
