Z -> R
140
Reciprocal
0.0 0.0 0.0 1 
0.16666666666666 -0.0 0.0 4 
0.33333333333334 0.0 0.0 4 
0.5 0.0 0.0 2 
0.16666666666666 0.16666666666666 0.0 4 
0.33333333333334 0.16666666666666 0.0 8 
0.5 0.16666666666666 0.0 4 
0.33333333333334 0.33333333333334 0.0 4 
0.5 0.33333333333334 0.0 4 
0.5 0.5 0.0 1 
-0.0 -0.0 0.11111111111111 2 
0.16666666666666 -0.0 0.11111111111111 8 
0.33333333333334 0.0 0.11111111111111 8 
0.5 0.0 0.11111111111111 4 
0.16666666666666 0.16666666666666 0.11111111111111 8 
0.33333333333334 0.16666666666666 0.11111111111111 16 
0.5 0.16666666666666 0.11111111111111 8 
0.33333333333334 0.33333333333334 0.11111111111111 8 
0.5 0.33333333333334 0.11111111111111 8 
0.5 0.5 0.11111111111111 2 
0.0 0.0 0.22222222222222 2 
0.16666666666666 -0.0 0.22222222222222 8 
0.33333333333334 0.0 0.22222222222222 8 
0.5 0.0 0.22222222222222 4 
0.16666666666666 0.16666666666666 0.22222222222222 8 
0.33333333333334 0.16666666666666 0.22222222222222 16 
0.5 0.16666666666666 0.22222222222222 8 
0.33333333333334 0.33333333333334 0.22222222222222 8 
0.5 0.33333333333334 0.22222222222222 8 
0.5 0.5 0.22222222222222 2 
-0.0 -0.0 0.33333333333334 2 
0.16666666666666 -0.0 0.33333333333334 8 
0.33333333333334 -0.0 0.33333333333334 8 
0.5 -0.0 0.33333333333334 4 
0.16666666666666 0.16666666666666 0.33333333333334 8 
0.33333333333334 0.16666666666666 0.33333333333334 16 
0.5 0.16666666666666 0.33333333333334 8 
0.33333333333334 0.33333333333334 0.33333333333334 8 
0.5 0.33333333333334 0.33333333333334 8 
0.5 0.5 0.33333333333334 2 
0.0 0.0 0.44444444444444 2 
0.16666666666666 0.0 0.44444444444444 8 
0.33333333333334 0.0 0.44444444444444 8 
0.5 0.0 0.44444444444444 4 
0.16666666666666 0.16666666666666 0.44444444444444 8 
0.33333333333334 0.16666666666666 0.44444444444444 16 
0.5 0.16666666666666 0.44444444444444 8 
0.33333333333334 0.33333333333334 0.44444444444444 8 
0.5 0.33333333333334 0.44444444444444 8 
0.5 0.5 0.44444444444444 2 
0.0 -6.162975822039155e-33 0.3076923076923077 0 
0.0 0.0 0.3153846153846154 0 
0.0 -6.162975822039155e-33 0.3230769230769231 0 
0.0 -6.162975822039155e-33 0.33076923076923076 0 
0.0 -6.162975822039155e-33 0.3384615384615384 0 
0.0 -6.162975822039155e-33 0.3461538461538461 0 
0.0 0.0 0.35384615384615387 0 
0.0 0.0 0.36153846153846153 0 
0.0 0.0 0.36923076923076925 0 
0.0 -6.162975822039155e-33 0.3769230769230769 0 
0.0 -6.162975822039155e-33 0.38461538461538464 0 
0.0 -6.162975822039155e-33 0.3923076923076923 0 
0.0 0.0 0.4 0 
0.0 0.0 0.4076923076923077 0 
-6.162975822039155e-33 0.0 0.4153846153846154 0 
-6.162975822039155e-33 -6.162975822039155e-33 0.4230769230769231 0 
0.0 0.0 0.43076923076923074 0 
0.0 0.0 0.4384615384615384 0 
-6.162975822039155e-33 -6.162975822039155e-33 0.4461538461538461 0 
0.0 0.0 0.45384615384615384 0 
-6.162975822039155e-33 0.0 0.46153846153846156 0 
-6.162975822039155e-33 0.0 0.46923076923076923 0 
0.0 0.0 0.47692307692307695 0 
0.0 0.0 0.48461538461538456 0 
-6.162975822039155e-33 0.0 0.4923076923076923 0 
0.0 0.0 0.5 0 Z
0.0 0.012195121951219513 0.5 0 
0.0 0.02439024390243903 0.5 0 
0.0 0.036585365853658534 0.5 0 
0.0 0.04878048780487805 0.5 0 
0.0 0.06097560975609755 0.5 0 
0.0 0.07317073170731707 0.5 0 
0.0 0.08536585365853659 0.5 0 
0.0 0.0975609756097561 0.5 0 
0.0 0.10975609756097561 0.5 0 
0.0 0.1219512195121951 0.5 0 
0.0 0.13414634146341464 0.5 0 
0.0 0.14634146341463414 0.5 0 
0.0 0.15853658536585366 0.5 0 
0.0 0.17073170731707318 0.5 0 
0.0 0.18292682926829268 0.5 0 
0.0 0.19512195121951223 0.5 0 
0.0 0.20731707317073172 0.5 0 
0.0 0.21951219512195125 0.5 0 
0.0 0.23170731707317077 0.5 0 
0.0 0.24390243902439024 0.5 0 
0.0 0.2560975609756098 0.5 0 
0.0 0.26829268292682934 0.5 0 
0.0 0.28048780487804886 0.5 0 
0.0 0.2926829268292683 0.5 0 
0.0 0.3048780487804878 0.5 0 
0.0 0.3170731707317073 0.5 0 
0.0 0.32926829268292684 0.5 0 
0.0 0.34146341463414637 0.5 0 
0.0 0.35365853658536583 0.5 0 
0.0 0.36585365853658536 0.5 0 
0.0 0.3780487804878049 0.5 0 
0.0 0.3902439024390244 0.5 0 
0.0 0.4024390243902439 0.5 0 
0.0 0.4146341463414634 0.5 0 
0.0 0.4268292682926829 0.5 0 
0.0 0.43902439024390244 0.5 0 
0.0 0.45121951219512196 0.5 0 
0.0 0.4634146341463415 0.5 0 
0.0 0.47560975609756095 0.5 0 
0.0 0.4878048780487804 0.5 0 
0.0 0.5 0.5 0 R
0.012195121951219513 0.5 0.5 0 
0.02439024390243903 0.5 0.5 0 
0.036585365853658534 0.5 0.5 0 
0.04878048780487805 0.5 0.5 0 
0.06097560975609755 0.5 0.5 0 
0.07317073170731707 0.5 0.5 0 
0.08536585365853659 0.5 0.5 0 
0.0975609756097561 0.5 0.5 0 
0.10975609756097561 0.5 0.5 0 
0.1219512195121951 0.5 0.5 0 
0.13414634146341464 0.5 0.5 0 
0.14634146341463414 0.5 0.5 0 
0.15853658536585366 0.5 0.5 0 
0.17073170731707318 0.5 0.5 0 
0.18292682926829268 0.5 0.5 0 
0.19512195121951223 0.5 0.5 0 
0.20731707317073172 0.5 0.5 0 
0.21951219512195125 0.5 0.5 0 
0.23170731707317077 0.5 0.5 0 
0.24390243902439024 0.5 0.5 0 
0.2560975609756098 0.49999999999999994 0.5 0 
0.26829268292682934 0.49999999999999994 0.5 0 
0.28048780487804886 0.49999999999999994 0.5 0 
