A -> Z
126
Reciprocal
0.0 0.0 0.0 1 
0.16666666666666 -0.0 0.0 4 
0.33333333333334 0.0 0.0 4 
0.5 0.0 0.0 2 
0.16666666666666 0.16666666666666 0.0 4 
0.33333333333334 0.16666666666666 0.0 8 
0.5 0.16666666666666 0.0 4 
0.33333333333334 0.33333333333334 0.0 4 
0.5 0.33333333333334 0.0 4 
0.5 0.5 0.0 1 
-0.0 -0.0 0.11111111111111 2 
0.16666666666666 -0.0 0.11111111111111 8 
0.33333333333334 0.0 0.11111111111111 8 
0.5 0.0 0.11111111111111 4 
0.16666666666666 0.16666666666666 0.11111111111111 8 
0.33333333333334 0.16666666666666 0.11111111111111 16 
0.5 0.16666666666666 0.11111111111111 8 
0.33333333333334 0.33333333333334 0.11111111111111 8 
0.5 0.33333333333334 0.11111111111111 8 
0.5 0.5 0.11111111111111 2 
0.0 0.0 0.22222222222222 2 
0.16666666666666 -0.0 0.22222222222222 8 
0.33333333333334 0.0 0.22222222222222 8 
0.5 0.0 0.22222222222222 4 
0.16666666666666 0.16666666666666 0.22222222222222 8 
0.33333333333334 0.16666666666666 0.22222222222222 16 
0.5 0.16666666666666 0.22222222222222 8 
0.33333333333334 0.33333333333334 0.22222222222222 8 
0.5 0.33333333333334 0.22222222222222 8 
0.5 0.5 0.22222222222222 2 
-0.0 -0.0 0.33333333333334 2 
0.16666666666666 -0.0 0.33333333333334 8 
0.33333333333334 -0.0 0.33333333333334 8 
0.5 -0.0 0.33333333333334 4 
0.16666666666666 0.16666666666666 0.33333333333334 8 
0.33333333333334 0.16666666666666 0.33333333333334 16 
0.5 0.16666666666666 0.33333333333334 8 
0.33333333333334 0.33333333333334 0.33333333333334 8 
0.5 0.33333333333334 0.33333333333334 8 
0.5 0.5 0.33333333333334 2 
0.0 0.0 0.44444444444444 2 
0.16666666666666 0.0 0.44444444444444 8 
0.33333333333334 0.0 0.44444444444444 8 
0.5 0.0 0.44444444444444 4 
0.16666666666666 0.16666666666666 0.44444444444444 8 
0.33333333333334 0.16666666666666 0.44444444444444 16 
0.5 0.16666666666666 0.44444444444444 8 
0.33333333333334 0.33333333333334 0.44444444444444 8 
0.5 0.33333333333334 0.44444444444444 8 
0.5 0.5 0.44444444444444 2 
0.2926829268292683 0.49999999999999994 0.5 0 
0.3048780487804878 0.49999999999999994 0.5 0 
0.3170731707317073 0.49999999999999994 0.5 0 
0.32926829268292684 0.49999999999999994 0.5 0 
0.34146341463414637 0.49999999999999994 0.5 0 
0.35365853658536583 0.49999999999999994 0.5 0 
0.36585365853658536 0.49999999999999994 0.5 0 
0.3780487804878049 0.49999999999999994 0.5 0 
0.3902439024390244 0.49999999999999994 0.5 0 
0.4024390243902439 0.49999999999999994 0.5 0 
0.4146341463414634 0.49999999999999994 0.5 0 
0.4268292682926829 0.49999999999999994 0.5 0 
0.43902439024390244 0.49999999999999994 0.5 0 
0.45121951219512196 0.49999999999999994 0.5 0 
0.4634146341463415 0.49999999999999994 0.5 0 
0.47560975609756095 0.49999999999999994 0.5 0 
0.4878048780487804 0.49999999999999994 0.5 0 
0.5 0.49999999999999994 0.5 0 A
0.49137931034482757 0.4913793103448275 0.5 0 
0.4827586206896552 0.4827586206896552 0.5 0 
0.47413793103448276 0.47413793103448276 0.5 0 
0.46551724137931033 0.4655172413793103 0.5 0 
0.4568965517241379 0.45689655172413784 0.5 0 
0.4482758620689655 0.4482758620689655 0.5 0 
0.4396551724137931 0.4396551724137931 0.5 0 
0.43103448275862066 0.43103448275862066 0.5 0 
0.4224137931034483 0.4224137931034483 0.5 0 
0.41379310344827586 0.41379310344827586 0.5 0 
0.4051724137931034 0.4051724137931034 0.5 0 
0.396551724137931 0.39655172413793105 0.5 0 
0.38793103448275856 0.3879310344827586 0.5 0 
0.3793103448275862 0.3793103448275862 0.5 0 
0.37068965517241376 0.37068965517241376 0.5 0 
0.3620689655172414 0.3620689655172414 0.5 0 
0.35344827586206895 0.35344827586206895 0.5 0 
0.3448275862068965 0.3448275862068965 0.5 0 
0.3362068965517241 0.33620689655172414 0.5 0 
0.3275862068965517 0.3275862068965517 0.5 0 
0.31896551724137934 0.3189655172413793 0.5 0 
0.31034482758620685 0.3103448275862069 0.5 0 
0.3017241379310345 0.3017241379310345 0.5 0 
0.29310344827586204 0.29310344827586204 0.5 0 
0.28448275862068967 0.28448275862068967 0.5 0 
0.27586206896551724 0.27586206896551724 0.5 0 
0.2672413793103448 0.2672413793103448 0.5 0 
0.2586206896551724 0.2586206896551724 0.5 0 
0.24999999999999997 0.24999999999999997 0.5 0 
0.24137931034482754 0.24137931034482754 0.5 0 
0.2327586206896552 0.23275862068965517 0.5 0 
0.22413793103448276 0.22413793103448273 0.5 0 
0.21551724137931033 0.2155172413793103 0.5 0 
0.20689655172413793 0.20689655172413796 0.5 0 
0.1982758620689655 0.19827586206896552 0.5 0 
0.1896551724137931 0.18965517241379307 0.5 0 
0.18103448275862066 0.18103448275862064 0.5 0 
0.17241379310344826 0.1724137931034483 0.5 0 
0.16379310344827583 0.16379310344827586 0.5 0 
0.15517241379310343 0.15517241379310343 0.5 0 
0.14655172413793102 0.14655172413793102 0.5 0 
0.1379310344827586 0.13793103448275862 0.5 0 
0.1293103448275862 0.12931034482758613 0.5 0 
0.12068965517241376 0.12068965517241377 0.5 0 
0.11206896551724133 0.11206896551724134 0.5 0 
0.10344827586206896 0.1034482758620689 0.5 0 
0.09482758620689653 0.09482758620689655 0.5 0 
0.0862068965517241 0.08620689655172412 0.5 0 
0.07758620689655166 0.07758620689655167 0.5 0 
0.06896551724137931 0.06896551724137932 0.5 0 
0.06034482758620686 0.060344827586206864 0.5 0 
0.051724137931034427 0.05172413793103443 0.5 0 
0.04310344827586199 0.043103448275861996 0.5 0 
0.034482758620689634 0.03448275862068964 0.5 0 
0.0258620689655172 0.025862068965517203 0.5 0 
0.01724137931034476 0.017241379310344765 0.5 0 
0.008620689655172405 0.008620689655172407 0.5 0 
0.0 0.0 0.5 0 Z
